
Gurobi 9.1.0 (win64) logging started Sat Jan  2 09:22:42 2021

Changed value of parameter LogFile to logs/iteration7
   Prev:   Default: 
Gurobi Optimizer version 9.1.0 build v9.1.0rc0 (win64)
Thread count: 4 physical cores, 8 logical processors, using up to 8 threads
Optimize a model with 136 rows, 436 columns and 1555 nonzeros
Model fingerprint: 0xc4e2346a
Coefficient statistics:
  Matrix range     [1e+00, 1e+00]
  Objective range  [1e+03, 3e+03]
  Bounds range     [0e+00, 0e+00]
  RHS range        [1e+00, 1e+00]
Presolve removed 21 rows and 34 columns
Presolve time: 0.00s
Presolved: 115 rows, 402 columns, 1521 nonzeros

Iteration    Objective       Primal Inf.    Dual Inf.      Time
       0    3.1002083e+04   1.150000e+02   0.000000e+00      0s
     204    9.9858417e+04   0.000000e+00   0.000000e+00      0s

Solved in 204 iterations and 0.00 seconds
Optimal objective  9.985841667e+04

Solutionx[6] 1.000000 
x[24] 1.000000 
x[27] 1.000000 
x[28] 0.333333 
x[37] 0.666667 
x[55] 1.000000 
x[64] 1.000000 
x[70] 1.000000 
x[72] 1.000000 
x[74] 1.000000 
x[76] 1.000000 
x[77] 1.000000 
x[78] 1.000000 
x[82] 1.000000 
x[101] 1.000000 
x[104] 1.000000 
x[107] 1.000000 
x[118] 1.000000 
x[124] 1.000000 
x[128] 1.000000 
x[129] 1.000000 
x[130] 1.000000 
x[131] 1.000000 
x[132] 1.000000 
x[133] 1.000000 
x[134] 1.000000 
x[135] 1.000000 
x[264] 0.333333 
x[273] 0.666667 
x[728] 1.000000 
x[731] 0.333333 
x[846] 0.666667 
x[1337] 0.666667 
x[1772] 1.000000 
x[1926] 0.333333 
x[2553] 0.333333 
x[2864] 0.666667 
x[4760] 0.833333 
x[7883] 0.833333 
x[9189] 1.000000 
x[10635] 0.166667 
x[29183] 0.166667 
x[9961] 1.000000 
x[6722] 1.000000 
x[13128] 1.000000 
x[18798] 1.000000 
x[30408] 1.000000 
x[16501] 1.000000 
x[10403] 1.000000 
x[10912] 1.000000 
x[32577] 1.000000 
x[12011] 1.000000 
x[15180] 1.000000 
x[3447] 1.000000 
x[26433] 0.500000 
x[30770] 0.500000 
x[2739] 0.500000 
x[8273] 0.500000 
x[6136] 1.000000 
x[11331] 0.666667 
x[29724] 0.333333 
x[32477] 0.333333 
x[7018] 0.333333 
x[26477] 0.333333 
x[13863] 1.000000 
x[9050] 0.500000 
x[27762] 0.333333 
x[2977] 0.166667 
